************************************************************************
file with basedata            : j9018_.bas
initial value random generator: 1184060982
************************************************************************
projects                      :  1
jobs (incl. supersource/sink ):  92
horizon                       :  514
RESOURCES
  - renewable                 :  4   R
  - nonrenewable              :  0   N
  - doubly constrained        :  0   D
************************************************************************
PROJECT INFORMATION:
pronr.  #jobs rel.date duedate tardcost  MPM-Time
    1     90      0       83       72       83
************************************************************************
PRECEDENCE RELATIONS:
jobnr.    #modes  #successors   successors
   1        1          3           2   3   4
   2        1          3          13  18  19
   3        1          3           5   7   9
   4        1          1          26
   5        1          3           6  14  41
   6        1          3          16  25  34
   7        1          3           8  17  20
   8        1          3          10  15  22
   9        1          3          11  21  24
  10        1          2          12  35
  11        1          3          33  73  84
  12        1          3          38  47  56
  13        1          3          40  41  78
  14        1          1          53
  15        1          2          21  29
  16        1          2          36  70
  17        1          3          54  71  91
  18        1          2          46  47
  19        1          3          66  67  76
  20        1          2          60  88
  21        1          1          27
  22        1          2          23  61
  23        1          2          28  58
  24        1          3          31  48  59
  25        1          2          32  39
  26        1          3          30  31  51
  27        1          3          40  43  48
  28        1          1          57
  29        1          2          41  64
  30        1          1          60
  31        1          3          35  50  74
  32        1          1          62
  33        1          2          44  65
  34        1          2          35  66
  35        1          3          37  45  49
  36        1          3          55  69  90
  37        1          1          65
  38        1          1          63
  39        1          3          43  50  81
  40        1          3          42  61  72
  41        1          2          83  86
  42        1          2          54  75
  43        1          1          62
  44        1          3          51  58  77
  45        1          1          67
  46        1          1          69
  47        1          3          51  52  79
  48        1          1          87
  49        1          1          72
  50        1          2          72  73
  51        1          2          59  87
  52        1          2          53  67
  53        1          1          71
  54        1          1          64
  55        1          2          66  77
  56        1          1          68
  57        1          2          68  77
  58        1          3          59  60  85
  59        1          1          88
  60        1          1          78
  61        1          1          68
  62        1          1          82
  63        1          2          64  69
  64        1          1          89
  65        1          2          71  79
  66        1          1          86
  67        1          1          91
  68        1          2          74  81
  69        1          1          73
  70        1          3          74  78  80
  71        1          1          81
  72        1          3          75  76  79
  73        1          1          86
  74        1          1          84
  75        1          3          80  82  85
  76        1          1          80
  77        1          1          85
  78        1          1          83
  79        1          1          82
  80        1          1          84
  81        1          1          83
  82        1          1          88
  83        1          1          87
  84        1          1          89
  85        1          1          91
  86        1          1          89
  87        1          1          90
  88        1          1          90
  89        1          1          92
  90        1          1          92
  91        1          1          92
  92        1          0        
************************************************************************
REQUESTS/DURATIONS:
jobnr. mode duration  R 1  R 2  R 3  R 4
------------------------------------------------------------------------
  1      1     0       0    0    0    0
  2      1     4       3    0    0    0
  3      1     3       0    0    4    0
  4      1     6       0    0    0    1
  5      1     2       5    0    0    0
  6      1     1       7    0    0    0
  7      1    10       0    6    0    0
  8      1     4       2    0    0    0
  9      1     3       3    0    0    0
 10      1     7       0    3    0    0
 11      1     9       0    0    0    6
 12      1     7       0    0    0    8
 13      1     9       0    0    0    8
 14      1     4       0    0    6    0
 15      1     8       5    0    0    0
 16      1     2      10    0    0    0
 17      1     8       5    0    0    0
 18      1     3      10    0    0    0
 19      1     8       0    0   10    0
 20      1     8       8    0    0    0
 21      1    10       0    0    0    4
 22      1     5       0    0    0    9
 23      1     6      10    0    0    0
 24      1     9       0    0    4    0
 25      1     3       8    0    0    0
 26      1     3       0    0    3    0
 27      1     2       0    0    0    3
 28      1     2       0    0    0    2
 29      1     2       0    0    0    6
 30      1     7       1    0    0    0
 31      1     8       0   10    0    0
 32      1     7       0    0    0    8
 33      1     5       0    0    5    0
 34      1     1       0    0    0   10
 35      1     8       7    0    0    0
 36      1     6       0    4    0    0
 37      1    10       2    0    0    0
 38      1    10       0    0    2    0
 39      1     8       0    1    0    0
 40      1    10       0    4    0    0
 41      1     7       0    9    0    0
 42      1     3       0    0    3    0
 43      1     9       0    8    0    0
 44      1     2       2    0    0    0
 45      1    10       0    8    0    0
 46      1     9       0    0    0    9
 47      1     2       0    7    0    0
 48      1     5       7    0    0    0
 49      1     9       0    0    0    6
 50      1     3       0    0    5    0
 51      1     7       0    0    0    5
 52      1     9       3    0    0    0
 53      1     3       0    9    0    0
 54      1     1       0    0    0   10
 55      1     9       0    0    0    5
 56      1     5       0    0    0    8
 57      1     6       0    0    0    8
 58      1     8       5    0    0    0
 59      1     9       0    0    9    0
 60      1     2       6    0    0    0
 61      1     2       4    0    0    0
 62      1     1       1    0    0    0
 63      1     5       0   10    0    0
 64      1     1       0    0    2    0
 65      1    10       0    0    0    6
 66      1     5       1    0    0    0
 67      1     8       0    0    0    3
 68      1     8       0    0    0    5
 69      1     3       8    0    0    0
 70      1     2       0    0    1    0
 71      1     7       5    0    0    0
 72      1     6       0    0    2    0
 73      1    10       0    0    0    8
 74      1     2       5    0    0    0
 75      1     7       0    0    0    4
 76      1     4       2    0    0    0
 77      1     8       0    0    9    0
 78      1     2       0    0    4    0
 79      1     6       0    0    0    9
 80      1     9       6    0    0    0
 81      1     7       0    3    0    0
 82      1     8       5    0    0    0
 83      1     9       0    0   10    0
 84      1     1       0    5    0    0
 85      1     8       5    0    0    0
 86      1     3       8    0    0    0
 87      1     4       0    0   10    0
 88      1    10       0    7    0    0
 89      1     6       0    2    0    0
 90      1     4       0    8    0    0
 91      1     2       0    7    0    0
 92      1     0       0    0    0    0
************************************************************************
RESOURCEAVAILABILITIES:
  R 1  R 2  R 3  R 4
   19   21   17   21
************************************************************************
